

[NpcPos]	Flags	Index	PosX	PosY	Type	IsRangeCheck
0	0	1	36	41	3	1
1	0	2	37	36	2	1
2	0	3	37	13	5	1
3	0	4	10	34	1	1
4	0	5	28	40	1	1
5	0	6	12	43	4	1
6	0	7	43	27	1	1
7	0	8	23	49	7	0
8	0	9	17	49	7	0
9	0	14	219	184	6	1
10	1	15	19	113	6	1
11	1	16	65	242	6	1
12	1	17	128	232	6	1
13	1	18	240	116	6	1
14	1	19	87	163	6	1
15	1	20	52	172	6	1
16	1	21	83	139	6	1
17	1	22	166	65	6	1
18	1	23	185	28	6	1
19	1	24	73	164	6	1
20	0	25	55	159	7	0
21	0	26	145	34	7	0
22	0	27	15	111	7	0
23	0	28	22	72	7	0
24	0	29	160	195	7	0
25	0	30	59	68	7	0
26	0	50	0	0	1	0

[WarpLst]	NpcsIdx	NSetIdx	TargetIdx	LV	Fee	Type
0	14	0	110	0	0	1
1	14	1	116	0	0	1
2	14	2	118	0	0	1
3	14	3	120	0	0	1
4	14	4	122	0	0	1
5	15	0	44	3	0	0
6	16	0	35	0	0	1
7	16	1	47	0	0	1
8	16	2	106	0	0	1
9	16	3	148	1	0	2
10	16	4	175	1	0	2
11	17	0	57	0	0	1
12	17	1	79	0	0	1
13	17	2	117	0	0	1
14	17	3	149	1	0	2
15	17	4	163	1	0	2
16	17	5	187	1	0	2
17	17	6	188	1	0	2
18	17	7	189	1	0	2
19	17	8	219	1	0	2
20	17	9	220	1	0	2
21	17	10	221	1	0	2
22	17	11	222	1	0	2
23	17	12	246	1	0	2
24	17	13	247	1	0	2
25	18	0	69	0	0	1
26	18	1	78	0	0	1
27	18	2	80	0	0	1
28	18	3	168	1	0	2
29	18	4	176	1	0	2
30	18	5	190	1	0	2
31	19	0	146	0	0	1
32	21	0	34	0	0	1
33	21	1	147	0	0	1
34	22	0	44	0	0	1
35	22	1	68	0	0	1
36	22	2	81	0	0	1
37	22	3	137	0	0	1
38	23	0	70	0	0	1
39	23	1	77	0	0	1
40	24	0	60	0	0	1

[SkillLst]	NSetIdx	NpcsIdx	SkillIdx	SkillLv
0	0	2	1	1
1	1	2	2	1
2	2	2	209	1
3	3	2	3	1
4	4	2	5	1
5	5	2	10	1
6	6	2	11	1
7	7	2	203	1
8	8	2	208	1
9	9	2	12	1
10	10	2	13	1
11	11	2	22	1
12	12	2	200	1
13	13	2	23	1
14	14	2	25	1
15	15	2	6	1
16	16	2	8	1
17	17	2	68	1
18	18	2	30	1
19	19	2	32	1
20	20	2	204	1
21	21	2	14	1
22	22	2	15	1
23	23	2	26	1
24	24	2	28	1
25	25	2	38	1
26	26	2	201	1
27	27	2	39	1
28	28	2	216	1
29	29	2	41	1
30	30	2	205	1
31	31	2	43	1
32	32	2	45	1
33	33	2	51	1
34	34	2	206	1
35	35	2	53	1
36	36	2	34	1
37	37	2	36	1
38	38	2	202	1
39	39	2	210	1
40	40	2	55	1
41	41	2	219	1
42	42	2	217	1
43	43	2	218	1
44	44	2	57	1
45	45	2	220	1
46	46	2	221	1
47	47	2	100	1
48	48	2	157	1
49	49	2	230	1
50	50	2	424	1
51	51	2	101	1
52	52	2	102	1
53	53	2	103	1
54	54	2	104	1
55	55	2	105	1
56	56	2	106	1
57	57	2	425	1
58	58	2	426	1
59	59	2	427	1
60	60	2	428	1
61	61	2	429	1
62	62	2	430	1
63	63	2	107	1
64	64	2	248	1
65	65	2	431	1
66	66	2	108	1
67	67	2	109	1
68	68	2	110	1
69	69	2	111	1
70	70	2	112	1
71	71	2	113	1
72	72	2	432	1
73	73	2	433	1
74	74	2	434	1
75	75	2	435	1
76	76	2	436	1
77	77	2	437	1
78	78	2	114	1
79	79	2	158	1
80	80	2	438	1
81	81	2	115	1
82	82	2	116	1
83	83	2	117	1
84	84	2	118	1
85	85	2	119	1
86	86	2	120	1
87	87	2	439	1
88	88	2	440	1
89	89	2	441	1
90	90	2	442	1
91	91	2	443	1
92	92	2	444	1
93	93	2	121	1
94	94	2	249	1
95	95	2	445	1
96	96	2	122	1
97	97	2	123	1
98	98	2	124	1
99	99	2	125	1
100	100	2	126	1
101	101	2	127	1
102	102	2	446	1
103	103	2	447	1
104	104	2	448	1
105	105	2	449	1
106	106	2	450	1
107	107	2	451	1
108	108	2	159	1
109	109	2	223	1
110	110	2	251	1
111	111	2	224	1
112	112	2	225	1
113	113	2	250	1
114	114	2	300	1
115	115	2	301	1
116	116	2	300	2
117	117	2	301	2
118	118	2	305	1
119	119	2	306	1
120	120	2	300	3
121	121	2	301	3
122	122	2	302	1
123	123	2	303	1
124	124	2	304	1
125	125	2	305	2
126	126	2	306	2
127	127	2	300	4
128	128	2	301	4
129	129	2	302	2
130	130	2	303	2
131	131	2	304	2
132	132	2	305	3
133	133	2	306	3
134	134	2	300	5
135	135	2	301	5
136	136	2	302	3
137	137	2	303	3
138	138	2	304	3
139	139	2	305	4
140	140	2	306	4
141	141	2	300	6
142	142	2	301	6
143	143	2	302	4
144	144	2	303	4
145	145	2	304	4
146	146	2	305	5
147	147	2	306	5
148	148	2	300	7
149	149	2	301	7
150	150	2	302	5
151	151	2	303	5
152	152	2	304	5
153	153	2	305	6
154	154	2	306	6
155	155	2	300	8
156	156	2	301	8
157	157	2	302	6
158	158	2	303	6
159	159	2	304	6
160	160	2	305	7
161	161	2	306	7
162	162	2	300	9
163	163	2	301	9
164	164	2	302	7
165	165	2	303	7
166	166	2	304	7
167	167	2	305	8
168	168	2	306	8
169	169	2	300	10
170	170	2	301	10
171	171	2	302	8
172	172	2	303	8
173	173	2	304	8
174	174	2	305	9
175	175	2	306	9
176	176	2	310	1
177	177	2	311	1
178	178	2	312	1
179	179	2	313	1
180	180	2	314	1
181	181	2	310	2
182	182	2	311	2
183	183	2	312	2
184	184	2	313	2
185	185	2	314	2
186	186	2	310	3
187	187	2	311	3
188	188	2	312	3
189	189	2	313	3
190	190	2	314	3

[ShopLst]	NpcsIdx	NSetIdx	ItemKind	ItemOpt	ReputationClass	DurationIdx	Price
0	4	0	91	1073741872	-19	0	10000
1	4	2	92	1073741872	-19	0	10000
2	4	4	93	1073741872	-19	0	100000
3	4	6	94	1073741872	-19	0	100000
4	4	32	95	1073741872	-19	0	1000000
5	4	34	96	1073741872	-19	0	1000000
6	4	36	97	1073741872	-19	0	10000000
7	4	38	98	1073741872	-19	0	10000000
8	4	64	99	1073741872	-19	0	100000000
9	4	66	100	1073741872	-19	0	100000000
10	4	68	61	1073741872	-19	0	10000
11	4	69	62	1073741872	-19	0	10000
12	4	70	63	1073741872	-19	0	100000
13	4	71	64	1073741872	-19	0	100000
14	4	96	65	1073741872	-19	0	1000000
15	4	97	66	1073741872	-19	0	1000000
16	4	98	67	1073741872	-19	0	10000000
17	4	99	68	1073741872	-19	0	10000000
18	4	100	69	1073741872	-19	0	100000000
19	4	101	70	1073741872	-19	0	100000000
20	5	0	246	1073741872	-19	0	10000000
21	5	2	247	1073741872	-19	0	10000000
22	5	4	248	1073741872	-19	0	100000000
23	5	6	249	1073741872	-19	0	100000000
24	5	16	111	1073741872	-19	0	10000000
25	5	18	112	1073741872	-19	0	10000000
26	5	20	113	1073741872	-19	0	100000000
27	5	22	114	1073741872	-19	0	100000000
28	5	48	201	1073741872	-19	0	10000000
29	5	50	202	1073741872	-19	0	10000000
30	5	52	203	1073741872	-19	0	100000000
31	5	54	204	1073741872	-19	0	100000000
32	5	64	156	1073741872	-19	0	10000000
33	5	66	157	1073741872	-19	0	10000000
34	5	68	158	1073741872	-19	0	100000000
35	5	70	159	1073741872	-19	0	100000000
36	5	80	250	1073741872	-19	0	100000000
37	5	82	115	1073741872	-19	0	100000000
38	5	84	205	1073741872	-19	0	100000000
39	5	86	160	1073741872	-19	0	100000000
40	5	114	251	1073741872	-19	0	100000000
41	5	96	116	1073741872	-19	0	100000000
42	5	100	206	1073741872	-19	0	100000000
43	5	102	161	1073741872	-19	0	100000000
44	6	0	16	1073741872	-19	0	10000
45	6	2	31	1073741872	-19	0	10000
46	6	4	17	1073741872	-19	0	10000
47	6	6	32	1073741872	-19	0	10000
48	6	16	18	1073741872	-19	0	100000
49	6	18	33	1073741872	-19	0	100000
50	6	20	19	1073741872	-19	0	100000
51	6	22	34	1073741872	-19	0	100000
52	6	32	20	1073741872	-19	0	1000000
53	6	34	35	1073741872	-19	0	1000000
54	6	36	21	1073741872	-19	0	1000000
55	6	38	36	1073741872	-19	0	1000000
56	6	48	22	1073741872	-19	0	10000000
57	6	50	37	1073741872	-19	0	10000000
58	6	52	23	1073741872	-19	0	10000000
59	6	54	38	1073741872	-19	0	10000000
60	6	64	24	1073741872	-19	0	100000000
61	6	66	39	1073741872	-19	0	100000000
62	6	68	25	1073741872	-19	0	100000000
63	6	70	40	1073741872	-19	0	100000000
64	6	96	5	100	-19	0	50000
65	6	97	8	100	-19	0	50000
66	6	98	12	100	-19	0	50000
67	6	104	2	0	-19	0	1000000
68	6	105	1214	0	-19	0	10000000
69	6	106	1	0	-19	0	1000000
70	6	107	10	0	-19	0	100000
71	6	108	9	0	-19	0	10000
72	7	0	241	1073741872	-19	0	10000
73	7	2	242	1073741872	-19	0	100000
74	7	4	243	1073741872	-19	0	100000
75	7	6	244	1073741872	-19	0	1000000
76	7	16	106	1073741872	-19	0	10000
77	7	18	107	1073741872	-19	0	100000
78	7	20	108	1073741872	-19	0	100000
79	7	22	109	1073741872	-19	0	1000000
80	7	48	196	1073741872	-19	0	10000
81	7	50	197	1073741872	-19	0	100000
82	7	52	198	1073741872	-19	0	100000
83	7	54	199	1073741872	-19	0	1000000
84	7	64	151	1073741872	-19	0	10000
85	7	66	152	1073741872	-19	0	100000
86	7	68	153	1073741872	-19	0	100000
87	7	70	154	1073741872	-19	0	1000000
88	7	80	245	1073741872	-19	0	1000000
89	7	82	110	1073741872	-19	0	1000000
90	7	84	200	1073741872	-19	0	1000000
91	7	86	155	1073741872	-19	0	1000000
92	7	127	574	1106	-19	0	10000
93	50	0	3	1	-19	0	60
94	50	1	4	1	-19	0	800
95	50	2	5	1	-19	0	5000
96	50	3	6	1	-19	0	60
97	50	4	7	1	-19	0	800
98	50	5	8	1	-19	0	5000
99	50	8	3	4	-19	0	240
100	50	9	4	4	-19	0	3200
101	50	10	5	4	-19	0	20000
102	50	11	6	4	-19	0	240
103	50	12	7	4	-19	0	3200
104	50	13	8	4	-19	0	20000
105	50	16	3	7	-19	0	420
106	50	17	4	7	-19	0	5600
107	50	18	5	7	-19	0	35000
108	50	19	6	7	-19	0	420
109	50	20	7	7	-19	0	5600
110	50	21	8	7	-19	0	35000
111	50	24	5	20	1	0	100000
112	50	25	8	20	1	0	100000
113	50	26	12	10	1	0	8000
114	50	27	5	30	2	0	150000
115	50	28	8	30	2	0	150000
116	50	29	12	20	2	0	16000
117	50	35	5	50	3	0	250000
118	50	36	8	50	3	0	250000
119	50	37	12	30	3	0	24000
